array [1..3] of float: X_INTRODUCED_5_ = [1.0,-1.0,1.0];
var float: R;
var float: P;
var 0.0..10.0: I;
var float: B1:: is_defined_var;
var float: B2:: is_defined_var;
var float: B3:: is_defined_var;
var float: B4:: is_defined_var;
var 1.0..11.0: X_INTRODUCED_1_:: is_defined_var:: var_is_introduced;
var float: X_INTRODUCED_2_:: is_defined_var:: var_is_introduced;
var float: X_INTRODUCED_6_:: is_defined_var:: var_is_introduced;
var float: X_INTRODUCED_8_:: is_defined_var:: var_is_introduced;
var float: X_INTRODUCED_10_:: is_defined_var:: var_is_introduced;
constraint float_lin_eq(X_INTRODUCED_5_,[B1,X_INTRODUCED_2_,R],-0.0):: defines_var(B1);
constraint float_lin_eq(X_INTRODUCED_5_,[B2,X_INTRODUCED_6_,R],-0.0):: defines_var(B2);
constraint float_lin_eq(X_INTRODUCED_5_,[B3,X_INTRODUCED_8_,R],-0.0):: defines_var(B3);
constraint float_lin_eq(X_INTRODUCED_5_,[B4,X_INTRODUCED_10_,R],-0.0):: defines_var(B4);
constraint float_lin_eq([1.0,-1.0],[I,X_INTRODUCED_1_],-1.0):: defines_var(X_INTRODUCED_1_);
constraint float_times(P,X_INTRODUCED_1_,X_INTRODUCED_2_):: defines_var(X_INTRODUCED_2_);
constraint float_times(B1,X_INTRODUCED_1_,X_INTRODUCED_6_):: defines_var(X_INTRODUCED_6_);
constraint float_times(B2,X_INTRODUCED_1_,X_INTRODUCED_8_):: defines_var(X_INTRODUCED_8_);
constraint float_times(B3,X_INTRODUCED_1_,X_INTRODUCED_10_):: defines_var(X_INTRODUCED_10_);
solve  satisfy;
